; asyncpg :: corpus-study/repo_src/asyncpg/asyncpg/pool.py :: wait_for at release:228 :: naive encoding (verdict: unsat)
; Generated by snf-pipeline (encoder.py) -- run with any
; SMT-LIB2-compliant solver, e.g. `z3 asyncpg__corpus-study_repo_src_asyncpg_asyncpg_pool.py__waitfor_release_L228__naive.smt2`
; benchmark generated from python API
(set-info :status unknown)
(declare-fun timeout_fires () Bool)
(declare-fun cleanup_ran () Bool)
(assert
 (= timeout_fires false))
(assert
 (let (($x36 (not cleanup_ran)))
(and timeout_fires $x36)))
(check-sat)
